peakDumbCharging = 11100; 
Machine = anon_enum(16); 
machineSpeed = [3700,3700,3700,3700,3700,3700,3700,3700,3700,3700,3700,3700,3700,3700,3700,3700]; 
machineLoad = [3700,3700,3700,3700,3700,3700,3700,3700,3700,3700,3700,3700,3700,3700,3700,3700]; 
Car = anon_enum(16); 
demandCar = [2160,6680,24560,5160,4280,5280,11880,2960,13960,17040,9280,23520,11000,32521,32640,16240]; 
arrivalCar = [79,73,72,70,66,66,66,63,59,57,54,44,37,35,33,31]; 
departureCar = [81,77,82,72,70,70,71,66,64,64,62,53,41,48,67,65]; 
